-449 -481 0
-475 -481 0
-478 -481 0
-32 -481 0
-481 0
1 0
-33 0
449 0
65 0
-417 0
-97 0
25 0
-321 0
-57 0
-345 0
-385 0
-129 0
17 0
473 0
19 0
-225 0
-49 0
-241 0
-337 0
-249 0
-289 0
-441 0
-153 0
-265 0
-51 0
-243 0
-267 0
-339 0
-273 0
-313 0
-201 0
9 0
21 0
23 0
29 0
31 0
465 0
13 0
5 0
7 0
15 0
11 0
3 0
27 0
467 0
-41 0
0
